\Problem name: compact

Minimize
OBJROW: C
Subject To
ord(0,1):  - x(0,2) + x(0,3) >= 8
ord(0,2):  - x(0,3) + x(0,4) >= 9
ord(0,3):  x(0,1) - x(0,4) >= 2
ord(0,4):  x(0,0) - x(0,1) >= 8
ord(1,1):  - x(1,1) + x(1,2) >= 4
ord(1,2):  - x(1,2) + x(1,3) >= 1
ord(1,3):  x(1,0) - x(1,3) >= 1
ord(1,4):  - x(1,0) + x(1,4) >= 10
ord(2,1):  - x(2,1) + x(2,3) >= 3
ord(2,2):  x(2,2) - x(2,3) >= 6
ord(2,3):  x(2,0) - x(2,2) >= 1
ord(2,4):  - x(2,0) + x(2,4) >= 7
triangle2(0,1,0):  y(0,1,0) + y(1,0,0) = 1
triangle2(0,1,1):  y(0,1,1) + y(1,0,1) = 1
triangle2(0,1,2):  y(0,1,2) + y(1,0,2) = 1
triangle2(0,1,3):  y(0,1,3) + y(1,0,3) = 1
triangle2(0,1,4):  y(0,1,4) + y(1,0,4) = 1
triangle2(0,2,0):  y(0,2,0) + y(2,0,0) = 1
triangle2(0,2,1):  y(0,2,1) + y(2,0,1) = 1
triangle2(0,2,2):  y(0,2,2) + y(2,0,2) = 1
triangle2(0,2,3):  y(0,2,3) + y(2,0,3) = 1
triangle2(0,2,4):  y(0,2,4) + y(2,0,4) = 1
triangle2(1,2,0):  y(1,2,0) + y(2,1,0) = 1
triangle2(1,2,1):  y(1,2,1) + y(2,1,1) = 1
triangle2(1,2,2):  y(1,2,2) + y(2,1,2) = 1
triangle2(1,2,3):  y(1,2,3) + y(2,1,3) = 1
triangle2(1,2,4):  y(1,2,4) + y(2,1,4) = 1
MCLinV(0,1,0):  x(0,0) - v(0,1,0) - x(1,0) = 10
MCLinV(1,0,0):  - x(0,0) - v(1,0,0) + x(1,0) = 6
MCLin1(0,1,0):  u(0,1,0) >= -0
MCLin2(0,1,0):  -44 y(1,0,0) - u(0,1,0) <= -0
MCLin3(0,1,0):  54 y(1,0,0) + v(0,1,0) - u(0,1,0) <= 54
MCLin4(0,1,0):  54 y(1,0,0) - u(0,1,0) >= -0
MCLin5(0,1,0):  -44 y(1,0,0) + v(0,1,0) - u(0,1,0) >= -44
MCLin6(1,0,0):  u(1,0,0) >= -0
MCLin7(1,0,0):  -70 y(0,1,0) - u(1,0,0) <= -0
MCLin8(1,0,0):  28 y(0,1,0) + v(1,0,0) - u(1,0,0) <= 28
MCLin9(1,0,0):  28 y(0,1,0) - u(1,0,0) >= -0
MCLin10(1,0,0):  -70 y(0,1,0) + v(1,0,0) - u(1,0,0) >= -70
MCLinV(0,1,1):  x(0,1) - v(0,1,1) - x(1,1) = 4
MCLinV(1,0,1):  - x(0,1) - v(1,0,1) + x(1,1) = 8
MCLin1(0,1,1):  u(0,1,1) >= -0
MCLin2(0,1,1):  -40 y(1,0,1) - u(0,1,1) <= -0
MCLin3(0,1,1):  58 y(1,0,1) + v(0,1,1) - u(0,1,1) <= 58
MCLin4(0,1,1):  58 y(1,0,1) - u(0,1,1) >= -0
MCLin5(0,1,1):  -40 y(1,0,1) + v(0,1,1) - u(0,1,1) >= -40
MCLin6(1,0,1):  u(1,0,1) >= -0
MCLin7(1,0,1):  -70 y(0,1,1) - u(1,0,1) <= -0
MCLin8(1,0,1):  28 y(0,1,1) + v(1,0,1) - u(1,0,1) <= 28
MCLin9(1,0,1):  28 y(0,1,1) - u(1,0,1) >= -0
MCLin10(1,0,1):  -70 y(0,1,1) + v(1,0,1) - u(1,0,1) >= -70
MCLinV(0,1,2):  x(0,2) - v(0,1,2) - x(1,2) = 1
MCLinV(1,0,2):  - x(0,2) - v(1,0,2) + x(1,2) = 8
MCLin1(0,1,2):  u(0,1,2) >= -0
MCLin2(0,1,2):  -60 y(1,0,2) - u(0,1,2) <= -0
MCLin3(0,1,2):  38 y(1,0,2) + v(0,1,2) - u(0,1,2) <= 38
MCLin4(0,1,2):  38 y(1,0,2) - u(0,1,2) >= -0
MCLin5(0,1,2):  -60 y(1,0,2) + v(0,1,2) - u(0,1,2) >= -60
MCLin6(1,0,2):  u(1,0,2) >= -0
MCLin7(1,0,2):  -47 y(0,1,2) - u(1,0,2) <= -0
MCLin8(1,0,2):  51 y(0,1,2) + v(1,0,2) - u(1,0,2) <= 51
MCLin9(1,0,2):  51 y(0,1,2) - u(1,0,2) >= -0
MCLin10(1,0,2):  -47 y(0,1,2) + v(1,0,2) - u(1,0,2) >= -47
MCLinV(0,1,3):  x(0,3) - v(0,1,3) - x(1,3) = 1
MCLinV(1,0,3):  - x(0,3) - v(1,0,3) + x(1,3) = 9
MCLin1(0,1,3):  u(0,1,3) >= -0
MCLin2(0,1,3):  -53 y(1,0,3) - u(0,1,3) <= -0
MCLin3(0,1,3):  45 y(1,0,3) + v(0,1,3) - u(0,1,3) <= 45
MCLin4(0,1,3):  45 y(1,0,3) - u(0,1,3) >= -0
MCLin5(0,1,3):  -53 y(1,0,3) + v(0,1,3) - u(0,1,3) >= -53
MCLin6(1,0,3):  u(1,0,3) >= -0
MCLin7(1,0,3):  -55 y(0,1,3) - u(1,0,3) <= -0
MCLin8(1,0,3):  43 y(0,1,3) + v(1,0,3) - u(1,0,3) <= 43
MCLin9(1,0,3):  43 y(0,1,3) - u(1,0,3) >= -0
MCLin10(1,0,3):  -55 y(0,1,3) + v(1,0,3) - u(1,0,3) >= -55
MCLinV(0,1,4):  x(0,4) - v(0,1,4) - x(1,4) = 5
MCLinV(1,0,4):  - x(0,4) - v(1,0,4) + x(1,4) = 2
MCLin1(0,1,4):  u(0,1,4) >= -0
MCLin2(0,1,4):  -59 y(1,0,4) - u(0,1,4) <= -0
MCLin3(0,1,4):  39 y(1,0,4) + v(0,1,4) - u(0,1,4) <= 39
MCLin4(0,1,4):  39 y(1,0,4) - u(0,1,4) >= -0
MCLin5(0,1,4):  -59 y(1,0,4) + v(0,1,4) - u(0,1,4) >= -59
MCLin6(1,0,4):  u(1,0,4) >= -0
MCLin7(1,0,4):  -46 y(0,1,4) - u(1,0,4) <= -0
MCLin8(1,0,4):  52 y(0,1,4) + v(1,0,4) - u(1,0,4) <= 52
MCLin9(1,0,4):  52 y(0,1,4) - u(1,0,4) >= -0
MCLin10(1,0,4):  -46 y(0,1,4) + v(1,0,4) - u(1,0,4) >= -46
MCLinV(0,2,0):  x(0,0) - v(0,2,0) - x(2,0) = 7
MCLinV(2,0,0):  - x(0,0) - v(2,0,0) + x(2,0) = 6
MCLin1(0,2,0):  u(0,2,0) >= -0
MCLin2(0,2,0):  -44 y(2,0,0) - u(0,2,0) <= -0
MCLin3(0,2,0):  53 y(2,0,0) + v(0,2,0) - u(0,2,0) <= 53
MCLin4(0,2,0):  53 y(2,0,0) - u(0,2,0) >= -0
MCLin5(0,2,0):  -44 y(2,0,0) + v(0,2,0) - u(0,2,0) >= -44
MCLin6(2,0,0):  u(2,0,0) >= -0
MCLin7(2,0,0):  -66 y(0,2,0) - u(2,0,0) <= -0
MCLin8(2,0,0):  31 y(0,2,0) + v(2,0,0) - u(2,0,0) <= 31
MCLin9(2,0,0):  31 y(0,2,0) - u(2,0,0) >= -0
MCLin10(2,0,0):  -66 y(0,2,0) + v(2,0,0) - u(2,0,0) >= -66
MCLinV(0,2,1):  x(0,1) - v(0,2,1) - x(2,1) = 3
MCLinV(2,0,1):  - x(0,1) - v(2,0,1) + x(2,1) = 8
MCLin1(0,2,1):  u(0,2,1) >= -0
MCLin2(0,2,1):  -38 y(2,0,1) - u(0,2,1) <= -0
MCLin3(0,2,1):  59 y(2,0,1) + v(0,2,1) - u(0,2,1) <= 59
MCLin4(0,2,1):  59 y(2,0,1) - u(0,2,1) >= -0
MCLin5(0,2,1):  -38 y(2,0,1) + v(0,2,1) - u(0,2,1) >= -38
MCLin6(2,0,1):  u(2,0,1) >= -0
MCLin7(2,0,1):  -70 y(0,2,1) - u(2,0,1) <= -0
MCLin8(2,0,1):  27 y(0,2,1) + v(2,0,1) - u(2,0,1) <= 27
MCLin9(2,0,1):  27 y(0,2,1) - u(2,0,1) >= -0
MCLin10(2,0,1):  -70 y(0,2,1) + v(2,0,1) - u(2,0,1) >= -70
MCLinV(0,2,2):  x(0,2) - v(0,2,2) - x(2,2) = 1
MCLinV(2,0,2):  - x(0,2) - v(2,0,2) + x(2,2) = 8
MCLin1(0,2,2):  u(0,2,2) >= -0
MCLin2(0,2,2):  -64 y(2,0,2) - u(0,2,2) <= -0
MCLin3(0,2,2):  33 y(2,0,2) + v(0,2,2) - u(0,2,2) <= 33
MCLin4(0,2,2):  33 y(2,0,2) - u(0,2,2) >= -0
MCLin5(0,2,2):  -64 y(2,0,2) + v(0,2,2) - u(0,2,2) >= -64
MCLin6(2,0,2):  u(2,0,2) >= -0
MCLin7(2,0,2):  -42 y(0,2,2) - u(2,0,2) <= -0
MCLin8(2,0,2):  55 y(0,2,2) + v(2,0,2) - u(2,0,2) <= 55
MCLin9(2,0,2):  55 y(0,2,2) - u(2,0,2) >= -0
MCLin10(2,0,2):  -42 y(0,2,2) + v(2,0,2) - u(2,0,2) >= -42
MCLinV(0,2,3):  x(0,3) - v(0,2,3) - x(2,3) = 6
MCLinV(2,0,3):  - x(0,3) - v(2,0,3) + x(2,3) = 9
MCLin1(0,2,3):  u(0,2,3) >= -0
MCLin2(0,2,3):  -55 y(2,0,3) - u(0,2,3) <= -0
MCLin3(0,2,3):  42 y(2,0,3) + v(0,2,3) - u(0,2,3) <= 42
MCLin4(0,2,3):  42 y(2,0,3) - u(0,2,3) >= -0
MCLin5(0,2,3):  -55 y(2,0,3) + v(0,2,3) - u(0,2,3) >= -55
MCLin6(2,0,3):  u(2,0,3) >= -0
MCLin7(2,0,3):  -57 y(0,2,3) - u(2,0,3) <= -0
MCLin8(2,0,3):  40 y(0,2,3) + v(2,0,3) - u(2,0,3) <= 40
MCLin9(2,0,3):  40 y(0,2,3) - u(2,0,3) >= -0
MCLin10(2,0,3):  -57 y(0,2,3) + v(2,0,3) - u(2,0,3) >= -57
MCLinV(0,2,4):  x(0,4) - v(0,2,4) - x(2,4) = 5
MCLinV(2,0,4):  - x(0,4) - v(2,0,4) + x(2,4) = 2
MCLin1(0,2,4):  u(0,2,4) >= -0
MCLin2(0,2,4):  -59 y(2,0,4) - u(0,2,4) <= -0
MCLin3(0,2,4):  38 y(2,0,4) + v(0,2,4) - u(0,2,4) <= 38
MCLin4(0,2,4):  38 y(2,0,4) - u(0,2,4) >= -0
MCLin5(0,2,4):  -59 y(2,0,4) + v(0,2,4) - u(0,2,4) >= -59
MCLin6(2,0,4):  u(2,0,4) >= -0
MCLin7(2,0,4):  -45 y(0,2,4) - u(2,0,4) <= -0
MCLin8(2,0,4):  52 y(0,2,4) + v(2,0,4) - u(2,0,4) <= 52
MCLin9(2,0,4):  52 y(0,2,4) - u(2,0,4) >= -0
MCLin10(2,0,4):  -45 y(0,2,4) + v(2,0,4) - u(2,0,4) >= -45
MCLinV(1,2,0):  x(1,0) - v(1,2,0) - x(2,0) = 7
MCLinV(2,1,0):  - x(1,0) - v(2,1,0) + x(2,0) = 10
MCLin1(1,2,0):  u(1,2,0) >= -0
MCLin2(1,2,0):  -65 y(2,1,0) - u(1,2,0) <= -0
MCLin3(1,2,0):  44 y(2,1,0) + v(1,2,0) - u(1,2,0) <= 44
MCLin4(1,2,0):  44 y(2,1,0) - u(1,2,0) >= -0
MCLin5(1,2,0):  -65 y(2,1,0) + v(1,2,0) - u(1,2,0) >= -65
MCLin6(2,1,0):  u(2,1,0) >= -0
MCLin7(2,1,0):  -61 y(1,2,0) - u(2,1,0) <= -0
MCLin8(2,1,0):  48 y(1,2,0) + v(2,1,0) - u(2,1,0) <= 48
MCLin9(2,1,0):  48 y(1,2,0) - u(2,1,0) >= -0
MCLin10(2,1,0):  -61 y(1,2,0) + v(2,1,0) - u(2,1,0) >= -61
MCLinV(1,2,1):  x(1,1) - v(1,2,1) - x(2,1) = 3
MCLinV(2,1,1):  - x(1,1) - v(2,1,1) + x(2,1) = 4
MCLin1(1,2,1):  u(1,2,1) >= -0
MCLin2(1,2,1):  -57 y(2,1,1) - u(1,2,1) <= -0
MCLin3(1,2,1):  52 y(2,1,1) + v(1,2,1) - u(1,2,1) <= 52
MCLin4(1,2,1):  52 y(2,1,1) - u(1,2,1) >= -0
MCLin5(1,2,1):  -57 y(2,1,1) + v(1,2,1) - u(1,2,1) >= -57
MCLin6(2,1,1):  u(2,1,1) >= -0
MCLin7(2,1,1):  -59 y(1,2,1) - u(2,1,1) <= -0
MCLin8(2,1,1):  50 y(1,2,1) + v(2,1,1) - u(2,1,1) <= 50
MCLin9(2,1,1):  50 y(1,2,1) - u(2,1,1) >= -0
MCLin10(2,1,1):  -59 y(1,2,1) + v(2,1,1) - u(2,1,1) >= -59
MCLinV(1,2,2):  x(1,2) - v(1,2,2) - x(2,2) = 1
MCLinV(2,1,2):  - x(1,2) - v(2,1,2) + x(2,2) = 1
MCLin1(1,2,2):  u(1,2,2) >= -0
MCLin2(1,2,2):  -60 y(2,1,2) - u(1,2,2) <= -0
MCLin3(1,2,2):  49 y(2,1,2) + v(1,2,2) - u(1,2,2) <= 49
MCLin4(1,2,2):  49 y(2,1,2) - u(1,2,2) >= -0
MCLin5(1,2,2):  -60 y(2,1,2) + v(1,2,2) - u(1,2,2) >= -60
MCLin6(2,1,2):  u(2,1,2) >= -0
MCLin7(2,1,2):  -51 y(1,2,2) - u(2,1,2) <= -0
MCLin8(2,1,2):  58 y(1,2,2) + v(2,1,2) - u(2,1,2) <= 58
MCLin9(2,1,2):  58 y(1,2,2) - u(2,1,2) >= -0
MCLin10(2,1,2):  -51 y(1,2,2) + v(2,1,2) - u(2,1,2) >= -51
MCLinV(1,2,3):  x(1,3) - v(1,2,3) - x(2,3) = 6
MCLinV(2,1,3):  - x(1,3) - v(2,1,3) + x(2,3) = 1
MCLin1(1,2,3):  u(1,2,3) >= -0
MCLin2(1,2,3):  -58 y(2,1,3) - u(1,2,3) <= -0
MCLin3(1,2,3):  51 y(2,1,3) + v(1,2,3) - u(1,2,3) <= 51
MCLin4(1,2,3):  51 y(2,1,3) - u(1,2,3) >= -0
MCLin5(1,2,3):  -58 y(2,1,3) + v(1,2,3) - u(1,2,3) >= -58
MCLin6(2,1,3):  u(2,1,3) >= -0
MCLin7(2,1,3):  -58 y(1,2,3) - u(2,1,3) <= -0
MCLin8(2,1,3):  51 y(1,2,3) + v(2,1,3) - u(2,1,3) <= 51
MCLin9(2,1,3):  51 y(1,2,3) - u(2,1,3) >= -0
MCLin10(2,1,3):  -58 y(1,2,3) + v(2,1,3) - u(2,1,3) >= -58
MCLinV(1,2,4):  x(1,4) - v(1,2,4) - x(2,4) = 5
MCLinV(2,1,4):  - x(1,4) - v(2,1,4) + x(2,4) = 5
MCLin1(1,2,4):  u(1,2,4) >= -0
MCLin2(1,2,4):  -60 y(2,1,4) - u(1,2,4) <= -0
MCLin3(1,2,4):  49 y(2,1,4) + v(1,2,4) - u(1,2,4) <= 49
MCLin4(1,2,4):  49 y(2,1,4) - u(1,2,4) >= -0
MCLin5(1,2,4):  -60 y(2,1,4) + v(1,2,4) - u(1,2,4) >= -60
MCLin6(2,1,4):  u(2,1,4) >= -0
MCLin7(2,1,4):  -59 y(1,2,4) - u(2,1,4) <= -0
MCLin8(2,1,4):  50 y(1,2,4) + v(2,1,4) - u(2,1,4) <= 50
MCLin9(2,1,4):  50 y(1,2,4) - u(2,1,4) >= -0
MCLin10(2,1,4):  -59 y(1,2,4) + v(2,1,4) - u(2,1,4) >= -59
makespan(0):  C - x(0,0) >= 6
makespan(1):  C - x(1,4) >= 5
makespan(2):  C - x(2,4) >= 5
cut_clique_0(012,1):  0.33333 x(1,1) + 0.25000 x(2,1) >= 1
cut_clique_0(012,2):  0.10000 x(0,2) + 0.12500 x(1,2) >= 1
cut_clique_0(012,3):  0.05542 x(0,3) + 0.04282 x(1,3) + 0.02015 x(2,3) >= 1
cut_clique_0(012,4):  0.01550 x(0,4) + 0.03876 x(2,4) >= 1
cut_clique_1(012,3):  0.08678 x(0,3) + 0.00964 x(1,3) + 0.01515 x(2,3) >= 1
cut_clique_2(012,3):  0.10853 x(0,3) + 0.00775 x(2,3) >= 1
cut_clique_0:  0.02508 x(0,2) + 0.08911 x(0,3) + 0.00990 x(1,3) + 0.00660 x(2,3) >= 1
cut_clique_1:  0.00430 x(0,2) + 0.10633 x(0,3) + 0.00119 x(1,3) + 0.00717 x(2,3) >= 1
Bounds
 0 <= C <= 76
 27 <= x(0,0) <= 70
 0 <= y(0,1,0) <= 1
 0 <= y(1,0,0) <= 1
 -44 <= v(0,1,0) <= 54
 -70 <= v(1,0,0) <= 28
 -760 <= u(0,1,0)
 -760 <= u(1,0,0)
 0 <= y(0,2,0) <= 1
 0 <= y(2,0,0) <= 1
 -44 <= v(0,2,0) <= 53
 -66 <= v(2,0,0) <= 31
 -760 <= u(0,2,0)
 -760 <= u(2,0,0)
 6 <= x(1,0) <= 61
 0 <= y(1,2,0) <= 1
 0 <= y(2,1,0) <= 1
 -65 <= v(1,2,0) <= 44
 -61 <= v(2,1,0) <= 48
 -760 <= u(1,2,0)
 -760 <= u(2,1,0)
 10 <= x(2,0) <= 64
 19 <= x(0,1) <= 62
 0 <= y(0,1,1) <= 1
 0 <= y(1,0,1) <= 1
 -40 <= v(0,1,1) <= 58
 -70 <= v(1,0,1) <= 28
 -760 <= u(0,1,1)
 -760 <= u(1,0,1)
 0 <= y(0,2,1) <= 1
 0 <= y(2,0,1) <= 1
 -38 <= v(0,2,1) <= 59
 -70 <= v(2,0,1) <= 27
 -760 <= u(0,2,1)
 -760 <= u(2,0,1)
 0 <= x(1,1) <= 55
 0 <= y(1,2,1) <= 1
 0 <= y(2,1,1) <= 1
 -57 <= v(1,2,1) <= 52
 -59 <= v(2,1,1) <= 50
 -760 <= u(1,2,1)
 -760 <= u(2,1,1)
 0 <= x(2,1) <= 54
 0 <= x(0,2) <= 43
 0 <= y(0,1,2) <= 1
 0 <= y(1,0,2) <= 1
 -60 <= v(0,1,2) <= 38
 -47 <= v(1,0,2) <= 51
 -760 <= u(0,1,2)
 -760 <= u(1,0,2)
 0 <= y(0,2,2) <= 1
 0 <= y(2,0,2) <= 1
 -64 <= v(0,2,2) <= 33
 -42 <= v(2,0,2) <= 55
 -760 <= u(0,2,2)
 -760 <= u(2,0,2)
 4 <= x(1,2) <= 59
 0 <= y(1,2,2) <= 1
 0 <= y(2,1,2) <= 1
 -60 <= v(1,2,2) <= 49
 -51 <= v(2,1,2) <= 58
 -760 <= u(1,2,2)
 -760 <= u(2,1,2)
 9 <= x(2,2) <= 63
 8 <= x(0,3) <= 51
 0 <= y(0,1,3) <= 1
 0 <= y(1,0,3) <= 1
 -53 <= v(0,1,3) <= 45
 -55 <= v(1,0,3) <= 43
 -760 <= u(0,1,3)
 -760 <= u(1,0,3)
 0 <= y(0,2,3) <= 1
 0 <= y(2,0,3) <= 1
 -55 <= v(0,2,3) <= 42
 -57 <= v(2,0,3) <= 40
 -760 <= u(0,2,3)
 -760 <= u(2,0,3)
 5 <= x(1,3) <= 60
 0 <= y(1,2,3) <= 1
 0 <= y(2,1,3) <= 1
 -58 <= v(1,2,3) <= 51
 -58 <= v(2,1,3) <= 51
 -760 <= u(1,2,3)
 -760 <= u(2,1,3)
 3 <= x(2,3) <= 57
 17 <= x(0,4) <= 60
 0 <= y(0,1,4) <= 1
 0 <= y(1,0,4) <= 1
 -59 <= v(0,1,4) <= 39
 -46 <= v(1,0,4) <= 52
 -760 <= u(0,1,4)
 -760 <= u(1,0,4)
 0 <= y(0,2,4) <= 1
 0 <= y(2,0,4) <= 1
 -59 <= v(0,2,4) <= 38
 -45 <= v(2,0,4) <= 52
 -760 <= u(0,2,4)
 -760 <= u(2,0,4)
 16 <= x(1,4) <= 71
 0 <= y(1,2,4) <= 1
 0 <= y(2,1,4) <= 1
 -60 <= v(1,2,4) <= 49
 -59 <= v(2,1,4) <= 50
 -760 <= u(1,2,4)
 -760 <= u(2,1,4)
 17 <= x(2,4) <= 71
Integers
C x(0,0) y(0,1,0) y(1,0,0) v(0,1,0) v(1,0,0) u(0,1,0) u(1,0,0) y(0,2,0) y(2,0,0) 
v(0,2,0) v(2,0,0) u(0,2,0) u(2,0,0) x(1,0) y(1,2,0) y(2,1,0) v(1,2,0) v(2,1,0) u(1,2,0) 
u(2,1,0) x(2,0) x(0,1) y(0,1,1) y(1,0,1) v(0,1,1) v(1,0,1) u(0,1,1) u(1,0,1) y(0,2,1) 
y(2,0,1) v(0,2,1) v(2,0,1) u(0,2,1) u(2,0,1) x(1,1) y(1,2,1) y(2,1,1) v(1,2,1) v(2,1,1) 
u(1,2,1) u(2,1,1) x(2,1) x(0,2) y(0,1,2) y(1,0,2) v(0,1,2) v(1,0,2) u(0,1,2) u(1,0,2) 
y(0,2,2) y(2,0,2) v(0,2,2) v(2,0,2) u(0,2,2) u(2,0,2) x(1,2) y(1,2,2) y(2,1,2) v(1,2,2) 
v(2,1,2) u(1,2,2) u(2,1,2) x(2,2) x(0,3) y(0,1,3) y(1,0,3) v(0,1,3) v(1,0,3) u(0,1,3) 
u(1,0,3) y(0,2,3) y(2,0,3) v(0,2,3) v(2,0,3) u(0,2,3) u(2,0,3) x(1,3) y(1,2,3) y(2,1,3) 
v(1,2,3) v(2,1,3) u(1,2,3) u(2,1,3) x(2,3) x(0,4) y(0,1,4) y(1,0,4) v(0,1,4) v(1,0,4) 
u(0,1,4) u(1,0,4) y(0,2,4) y(2,0,4) v(0,2,4) v(2,0,4) u(0,2,4) u(2,0,4) x(1,4) y(1,2,4) 
y(2,1,4) v(1,2,4) v(2,1,4) u(1,2,4) u(2,1,4) x(2,4) 
End
